/* Objective function */
min: +C26 +C27 +C28 +C29 +C30;

/* Constraints */
+77 C1 +129 C2 +81 C3 +47 C4 +155 C5 -188 C26 <= 0;
+77 C6 +129 C7 +81 C8 +47 C9 +155 C10 -188 C27 <= 0;
+77 C11 +129 C12 +81 C13 +47 C14 +155 C15 -188 C28 <= 0;
+77 C16 +129 C17 +81 C18 +47 C19 +155 C20 -188 C29 <= 0;
+77 C21 +129 C22 +81 C23 +47 C24 +155 C25 -188 C30 <= 0;
+17 C1 +16 C2 +13 C3 +31 C4 +C5 -57 C26 <= 0;
+17 C6 +16 C7 +13 C8 +31 C9 +C10 -57 C27 <= 0;
+17 C11 +16 C12 +13 C13 +31 C14 +C15 -57 C28 <= 0;
+17 C16 +16 C17 +13 C18 +31 C19 +C20 -57 C29 <= 0;
+17 C21 +16 C22 +13 C23 +31 C24 +C25 -57 C30 <= 0;
+C1 +C6 +C11 +C16 +C21 = 1;
+C2 +C7 +C12 +C17 +C22 = 1;
+C3 +C8 +C13 +C18 +C23 = 1;
+C4 +C9 +C14 +C19 +C24 = 1;
+C5 +C10 +C15 +C20 +C25 = 1;

/* Variable bounds */
C1 <= 1;
C2 <= 1;
C3 <= 1;
C4 <= 1;
C5 <= 1;
C6 <= 1;
C7 <= 1;
C8 <= 1;
C9 <= 1;
C10 <= 1;
C11 <= 1;
C12 <= 1;
C13 <= 1;
C14 <= 1;
C15 <= 1;
C16 <= 1;
C17 <= 1;
C18 <= 1;
C19 <= 1;
C20 <= 1;
C21 <= 1;
C22 <= 1;
C23 <= 1;
C24 <= 1;
C25 <= 1;
C26 <= 1;
C27 <= 1;
C28 <= 1;
C29 <= 1;
C30 <= 1;

/* Integer definitions */
int C1,C2,C3,C4,C5,C6,C7,C8,C9,C10,C11,C12,C13,C14,C15,C16,C17,C18,C19,C20,C21,C22,C23,C24,C25,C26,C27,C28,C29,C30;
